RT is False
Default write of storage_offers_DA.csv just to have a file (but constraint should be inactive)
Reading model...
...model read.
creating competitive generators file...
...competitive generators recorded.
Loading data...
.. day-ahead data read.
Compiling instance...
...instance created.
Creating Offer Mitigation (model will solve as dispatch if TRUE)...
...storage offer mitigation file created
Converting model to MPEC...
...converted
MIP
NOTE: initial MIP solve with only storage competitive to get feasible solution
Solving...

Welcome to IBM(R) ILOG(R) CPLEX(R) Interactive Optimizer 12.9.0.0
  with Simplex, Mixed Integer & Barrier Optimizers
5725-A06 5725-A29 5724-Y48 5724-Y49 5724-Y54 5724-Y55 5655-Y21
Copyright IBM Corp. 1988, 2019.  All Rights Reserved.

Type 'help' for a list of available commands.
Type 'help' followed by a command name for more
information on commands.

CPLEX> Logfile 'cplex.log' closed.
Logfile 'C:\Users\Luke\Desktop\competitiveMPEC_1.16\logs\tmpr_r1uyph.cplex.log' open.
CPLEX> New value for parallel optimization mode: -1
CPLEX> New value for mixed integer optimality gap tolerance: 0.01
CPLEX> New value for feasibility tolerance: 0.01
CPLEX> New value for deterministic time limit in ticks: 250000
CPLEX> Problem 'C:\Users\Luke\Desktop\competitiveMPEC_1.16\logs\tmpgpcb1rlh.pyomo.lp' read.
Read time = 0.20 sec. (13.83 ticks)
CPLEX> Problem name         : C:\Users\Luke\Desktop\competitiveMPEC_1.16\logs\tmpgpcb1rlh.pyomo.lp
Objective sense      : Maximize
Variables            :   53321  [Nneg: 889,  Box: 21854,  Free: 3480,
                                 Binary: 27098]
Objective nonzeros   :    8919
Linear constraints   :  122140  [Less: 40959,  Greater: 58612,  Equal: 22569]
  Nonzeros           :  288419
  RHS nonzeros       :   66944

Variables            : Min LB: -5000.000        Max UB: 5000.000       
Objective nonzeros   : Min   : 1.200000         Max   : 799.1000       
Linear constraints   :
  Nonzeros           : Min   : 0.8500000        Max   : 497500.0       
  RHS nonzeros       : Min   : 1.000000         Max   : 500000.0       
CPLEX> CPXPARAM_Parallel                                -1
CPXPARAM_Simplex_Tolerances_Feasibility          0.01
CPXPARAM_DetTimeLimit                            250000
CPXPARAM_MIP_Tolerances_MIPGap                   0.01
Tried aggregator 3 times.
MIP Presolve eliminated 88269 rows and 19099 columns.
MIP Presolve added 3342 rows and 0 columns.
MIP Presolve modified 24406 coefficients.
Aggregator did 12858 substitutions.
Reduced MIP has 24355 rows, 20782 columns, and 68268 nonzeros.
Reduced MIP has 8213 binaries, 0 generals, 0 SOSs, and 0 indicators.
Presolve time = 0.25 sec. (166.28 ticks)
Probing fixed 447 vars, tightened 4619 bounds.
Probing time = 0.06 sec. (20.75 ticks)
Tried aggregator 2 times.
MIP Presolve eliminated 1001 rows and 899 columns.
MIP Presolve modified 2966 coefficients.
Aggregator did 30 substitutions.
Reduced MIP has 23324 rows, 19853 columns, and 65272 nonzeros.
Reduced MIP has 7764 binaries, 0 generals, 0 SOSs, and 0 indicators.
Presolve time = 0.11 sec. (88.79 ticks)
Probing fixed 0 vars, tightened 169 bounds.
Probing time = 0.09 sec. (23.54 ticks)
Clique table members: 42045.
MIP emphasis: balance optimality and feasibility.
MIP search method: dynamic search.
Parallel mode: opportunistic, using up to 24 threads.
Root relaxation solution time = 0.33 sec. (258.03 ticks)

        Nodes                                         Cuts/
   Node  Left     Objective  IInf  Best Integer    Best Bound    ItCnt     Gap

      0     0    83546.6291  1457                  83546.6291     6057         
      0     0    81700.5026   374                   Cuts: 840     6355         
      0     0    81513.7333   305                   Cuts: 551     6505         
      0     0    81500.3604   260                   Cuts: 382     6596         
      0     0    81460.6791   243                    Cuts: 84     6633         
      0     0    81455.6336   245                    Cuts: 52     6640         
      0     0    81452.8581   241                    Cuts: 46     6647         
      0     0    81351.4061   233                    Cuts: 54     6659         
      0     0    81351.4061   229                    Cuts: 40     6663         
      0    10    infeasible                          Cuts: 52     6961         
Elapsed time = 5.64 sec. (3554.89 ticks, tree = 0.02 MB, solutions = 0)
    437    52    infeasible                        73647.1898     7978         
    977   734    30123.9218    89                  73647.1898    11338         
   1424   968    31295.8807    84                  73647.1898    14735         
   1982  1211    54129.4581   108                  73647.1898    18818         
   2904  1608    48166.9089    80                  73647.1898    19708         
*  2911+ 1891                        40871.7060    73647.1898            80.19%
   3407  2049    49697.1748    66    41597.0078    73647.1898    20337   77.05%
   3768  2256    46459.8903    62    41597.0078    73647.1898    21803   77.05%
   4248  2704    46281.0787   109    41597.0078    73647.1898    24788   77.05%
*  5560  3483      integral     0    48447.0879    73647.1898    27833   52.02%
Elapsed time = 12.31 sec. (6292.52 ticks, tree = 27.20 MB, solutions = 4)
   5561  3212    infeasible          48447.0879    49925.7499    37580    3.05%
   5614     9    49341.9725    78    48447.0879    49110.1323    37807    1.37%

GUB cover cuts applied:  2
Clique cuts applied:  4
Cover cuts applied:  10
Implied bound cuts applied:  15
Flow cuts applied:  186
Mixed integer rounding cuts applied:  37
Gomory fractional cuts applied:  90

Root node processing (before b&c):
  Real time             =    5.22 sec. (3544.39 ticks)
Parallel b&c, 24 threads:
  Real time             =   14.47 sec. (7655.68 ticks)
  Sync time (average)   =    1.70 sec.
  Wait time (average)   =    0.07 sec.
                          ------------
Total (root+branch&cut) =   19.69 sec. (11200.08 ticks)

Solution pool: 5 solutions saved.

MIP - Integer optimal, tolerance (0.01/1e-06):  Objective =  4.8447087925e+04
Current MIP best bound =  4.8913914493e+04 (gap = 466.827, 0.96%)
Solution time =   19.69 sec.  Iterations = 38390  Nodes = 5625 (10)
Deterministic time = 11200.23 ticks  (568.91 ticks/sec)

CPLEX> Incumbent solution written to file 'C:\Users\Luke\Desktop\competitiveMPEC_1.16\logs\tmppzi6ggc7.cplex.sol'.
CPLEX> Exporting results... 
